53 40 21 73 72 75 23 67 39 25 55 54 24 29 68 80 
5 61 16 86 38 44 14 42 43 15 41 22 74 56 4 26 
52 18 83 8 82 7 48 19 49 36 47 46 45 17 84 60 89 
13 87 57 2 58 
94 95 97 92 98 37 100 91 85 93 59 99 96 6 
28 12 76 50 33 78 34 35 71 65 66 20 51 9 81 79 3 77 
27 69 31 88 62 11 64 63 10 90 32 30 70 1 
